# bcc iron in a 3d periodic box

clear 
units 		metal
atom_style 	spin

# dimension 	3
boundary 	p p p

# necessary for the serial algorithm (sametag)
atom_modify 	map array 

region 		box block -25 25 -25 25 -25 25 units box
create_box	2 box

lattice		bcc 2.8665
region 		p1 plane 0 20 0 0 -1 -1.0 units box
region 		p2 plane 0 20 0 0 -1 1.0 units box
region 		p3 plane 0 20 0 1.0 -1 0 units box
region		p4 plane 0 20 0 -1.0 -1 0 units box
region		p5 plane 0 -20 0 0 1 1.0 units box
region		p6 plane 0 -20 0 0 1 -1.0 units box
region		p7 plane 0 -20 0 -1.0 1 0 units box
region		p8 plane 0 -20 0 1.0 1 0 units box
#region		p9 prism -25 25 -19 19 -25 25 0 0 0 units box
region		s1 sphere 0 0 0 8.5 units box side out
region octa intersect 9 p1 p2 p3 p4 p5 p6 p7 p8 s1
create_atoms	1 region octa
 
region 		p10 plane 5 0 0 1 0 0 units box
region		nickel intersect 2 octa p10 side in
set		region nickel type 2
group		Ni type 2 
group		Fe type 1
set group Fe type/subset 2 124 300
set region nickel type/subset 1 124 300


# setting mass, mag. moments, and interactions for bcc iron

mass		1 55.845 #Fe
mass		2 58.693 #Ni

set 		group Fe spin 2.2 0 0 1 #Fe
set		group Ni spin 0.61 0 0 1 #Ni

pair_style 	hybrid/overlay eam/alloy spin/exchange 4.0
pair_coeff 	* * eam/alloy FeCuNi.eam.alloy Fe Ni
pair_coeff 	1 1 spin/exchange exchange 4.0 0.02726 0.2171 1.841 #FeFe
pair_coeff	1 2 spin/exchange exchange 4.0 0.00782 0.0001 1.37 #FeNi
pair_coeff	2 2 spin/exchange exchange 4.0 0.01066 0.00171 1.01282 #NiNi

neighbor 	0.5 bin
neigh_modify 	every 10 check yes delay 10

timestep 0.001

velocity 	all create 0 4928459 rot yes dist gaussian

compute 	out_mag    all spin
compute 	out_pe     all pe
compute 	out_ke     all ke
compute 	out_temp   all temp
compute     keAtom  all ke/atom
compute     peAtom  all pe/atom
compute     outsp all property/atom spx spy spz sp fmx fmy fmz

variable 	magx 	  equal c_out_mag[1]
variable	magy	  equal c_out_mag[2]
variable 	magz      equal c_out_mag[3]
variable 	magnorm   equal c_out_mag[4]
variable 	emag      equal c_out_mag[5]
variable 	tmag      equal c_out_mag[6]

thermo_style    custom step temp v_tmag v_magx v_magy v_magz v_magnorm ke pe etotal press #v_tmagFe #v_tmagNi v_magnorm v_magnormFe v_magnormNi v_emag ke pe etotal press
thermo          500

fix temperatura all langevin 0 0 1 23136
fix b all langevin/spin 300 0.01 29481
fix c all nve/spin lattice frozen
fix d all momentum 10 linear 1 1 1 angular rescale
fix centrar all recenter INIT INIT INIT


dump 		dumpRun all custom 100000 iron.*.dump type id x y z c_outsp[1] c_outsp[2] c_outsp[3] c_peAtom c_keAtom

run 		300000